(set-logic QF_S)
(declare-fun var0 () String)
(declare-fun var1 () String)
(declare-fun var2 () String)
(declare-fun var3 () Int)
(declare-fun var4 () Int)
(declare-fun var5 () Int)
(declare-fun var6 () Bool)
(declare-fun var7 () Bool)
(declare-fun var8 () Bool)
(assert (< var5 var4))
(assert (<= (str.indexof "0'KO_?YPq(" var1 var4) (str.indexof (str.at var2 2) (str.substr var1 var5 var4) (str.indexof var0 var2 var3))))
(assert (str.in.re var2 re.allchar))
(assert (>= (str.len "`>!_-t^g7@") (str.len var1)))
(check-sat)